NComp = 5;
NAlone = 1;
NFlow = 3;
NMoisLocation = 1;
NConcurrence = 1;

CompOs = [|0,0,0,0,1,1,1,1,0,|
          0,0,0,0,1,1,1,1,0,|
          0,0,0,0,1,1,1,1,0,|
          0,0,0,0,1,1,1,1,0,|
          0,0,0,0,1,1,1,1,0,|];
          
CompLoc = [|1,1,0,1,1,0,0,0,0,1,|
            1,1,0,1,1,0,0,0,0,1,|
            1,1,0,1,1,0,0,0,0,1,|
            1,1,0,1,1,0,0,0,0,1,|
            1,1,0,1,1,0,0,0,0,1,|];
            
CompMem = [16,16,8,8,16];
CompProc = [8,8,4,4,8];

CompAlone = [4];
CompFlow = [|1,3,|2,3,|1,5,|];
CompConcurrence = [|1,2|];